c This is a DIMACS SAT-instances file to check the chromatic number
c 
c The file Name               : GraphR4.txt
c The number of vertices      : 40
c 
c The chosen number of colour : 3
c 
p cnf 120 460
1 41 81 0
2 42 82 0
3 43 83 0
4 44 84 0
5 45 85 0
6 46 86 0
7 47 87 0
8 48 88 0
9 49 89 0
10 50 90 0
11 51 91 0
12 52 92 0
13 53 93 0
14 54 94 0
15 55 95 0
16 56 96 0
17 57 97 0
18 58 98 0
19 59 99 0
20 60 100 0
21 61 101 0
22 62 102 0
23 63 103 0
24 64 104 0
25 65 105 0
26 66 106 0
27 67 107 0
28 68 108 0
29 69 109 0
30 70 110 0
31 71 111 0
32 72 112 0
33 73 113 0
34 74 114 0
35 75 115 0
36 76 116 0
37 77 117 0
38 78 118 0
39 79 119 0
40 80 120 0
-1 -41 0
-1 -81 0
-41 -81 0
-2 -42 0
-2 -82 0
-42 -82 0
-3 -43 0
-3 -83 0
-43 -83 0
-4 -44 0
-4 -84 0
-44 -84 0
-5 -45 0
-5 -85 0
-45 -85 0
-6 -46 0
-6 -86 0
-46 -86 0
-7 -47 0
-7 -87 0
-47 -87 0
-8 -48 0
-8 -88 0
-48 -88 0
-9 -49 0
-9 -89 0
-49 -89 0
-10 -50 0
-10 -90 0
-50 -90 0
-11 -51 0
-11 -91 0
-51 -91 0
-12 -52 0
-12 -92 0
-52 -92 0
-13 -53 0
-13 -93 0
-53 -93 0
-14 -54 0
-14 -94 0
-54 -94 0
-15 -55 0
-15 -95 0
-55 -95 0
-16 -56 0
-16 -96 0
-56 -96 0
-17 -57 0
-17 -97 0
-57 -97 0
-18 -58 0
-18 -98 0
-58 -98 0
-19 -59 0
-19 -99 0
-59 -99 0
-20 -60 0
-20 -100 0
-60 -100 0
-21 -61 0
-21 -101 0
-61 -101 0
-22 -62 0
-22 -102 0
-62 -102 0
-23 -63 0
-23 -103 0
-63 -103 0
-24 -64 0
-24 -104 0
-64 -104 0
-25 -65 0
-25 -105 0
-65 -105 0
-26 -66 0
-26 -106 0
-66 -106 0
-27 -67 0
-27 -107 0
-67 -107 0
-28 -68 0
-28 -108 0
-68 -108 0
-29 -69 0
-29 -109 0
-69 -109 0
-30 -70 0
-30 -110 0
-70 -110 0
-31 -71 0
-31 -111 0
-71 -111 0
-32 -72 0
-32 -112 0
-72 -112 0
-33 -73 0
-33 -113 0
-73 -113 0
-34 -74 0
-34 -114 0
-74 -114 0
-35 -75 0
-35 -115 0
-75 -115 0
-36 -76 0
-36 -116 0
-76 -116 0
-37 -77 0
-37 -117 0
-77 -117 0
-38 -78 0
-38 -118 0
-78 -118 0
-39 -79 0
-39 -119 0
-79 -119 0
-40 -80 0
-40 -120 0
-80 -120 0
-25 -31 0
-65 -71 0
-105 -111 0
-25 -4 0
-65 -44 0
-105 -84 0
-25 -21 0
-65 -61 0
-105 -101 0
-25 -27 0
-65 -67 0
-105 -107 0
-25 -12 0
-65 -52 0
-105 -92 0
-31 -10 0
-71 -50 0
-111 -90 0
-31 -24 0
-71 -64 0
-111 -104 0
-31 -39 0
-71 -79 0
-111 -119 0
-31 -5 0
-71 -45 0
-111 -85 0
-22 -29 0
-62 -69 0
-102 -109 0
-22 -32 0
-62 -72 0
-102 -112 0
-22 -7 0
-62 -47 0
-102 -87 0
-22 -39 0
-62 -79 0
-102 -119 0
-22 -23 0
-62 -63 0
-102 -103 0
-29 -20 0
-69 -60 0
-109 -100 0
-29 -19 0
-69 -59 0
-109 -99 0
-29 -35 0
-69 -75 0
-109 -115 0
-29 -40 0
-69 -80 0
-109 -120 0
-2 -18 0
-42 -58 0
-82 -98 0
-2 -16 0
-42 -56 0
-82 -96 0
-2 -11 0
-42 -51 0
-82 -91 0
-2 -4 0
-42 -44 0
-82 -84 0
-2 -28 0
-42 -68 0
-82 -108 0
-18 -14 0
-58 -54 0
-98 -94 0
-18 -26 0
-58 -66 0
-98 -106 0
-18 -28 0
-58 -68 0
-98 -108 0
-18 -38 0
-58 -78 0
-98 -118 0
-34 -37 0
-74 -77 0
-114 -117 0
-34 -20 0
-74 -60 0
-114 -100 0
-34 -3 0
-74 -43 0
-114 -83 0
-34 -9 0
-74 -49 0
-114 -89 0
-34 -12 0
-74 -52 0
-114 -92 0
-37 -11 0
-77 -51 0
-117 -91 0
-37 -15 0
-77 -55 0
-117 -95 0
-37 -23 0
-77 -63 0
-117 -103 0
-37 -21 0
-77 -61 0
-117 -101 0
-14 -33 0
-54 -73 0
-94 -113 0
-14 -5 0
-54 -45 0
-94 -85 0
-14 -16 0
-54 -56 0
-94 -96 0
-14 -28 0
-54 -68 0
-94 -108 0
-26 -27 0
-66 -67 0
-106 -107 0
-26 -17 0
-66 -57 0
-106 -97 0
-26 -15 0
-66 -55 0
-106 -95 0
-26 -20 0
-66 -60 0
-106 -100 0
-6 -9 0
-46 -49 0
-86 -89 0
-6 -28 0
-46 -68 0
-86 -108 0
-6 -1 0
-46 -41 0
-86 -81 0
-6 -21 0
-46 -61 0
-86 -101 0
-6 -17 0
-46 -57 0
-86 -97 0
-9 -10 0
-49 -50 0
-89 -90 0
-9 -1 0
-49 -41 0
-89 -81 0
-9 -40 0
-49 -80 0
-89 -120 0
-33 -19 0
-73 -59 0
-113 -99 0
-33 -38 0
-73 -78 0
-113 -118 0
-33 -24 0
-73 -64 0
-113 -104 0
-33 -8 0
-73 -48 0
-113 -88 0
-4 -24 0
-44 -64 0
-84 -104 0
-4 -19 0
-44 -59 0
-84 -99 0
-4 -20 0
-44 -60 0
-84 -100 0
-27 -39 0
-67 -79 0
-107 -119 0
-27 -19 0
-67 -59 0
-107 -99 0
-27 -21 0
-67 -61 0
-107 -101 0
-32 -19 0
-72 -59 0
-112 -99 0
-32 -1 0
-72 -41 0
-112 -81 0
-32 -40 0
-72 -80 0
-112 -120 0
-32 -10 0
-72 -50 0
-112 -90 0
-17 -16 0
-57 -56 0
-97 -96 0
-17 -7 0
-57 -47 0
-97 -87 0
-17 -36 0
-57 -76 0
-97 -116 0
-11 -36 0
-51 -76 0
-91 -116 0
-11 -30 0
-51 -70 0
-91 -110 0
-11 -13 0
-51 -53 0
-91 -93 0
-36 -5 0
-76 -45 0
-116 -85 0
-36 -38 0
-76 -78 0
-116 -118 0
-36 -3 0
-76 -43 0
-116 -83 0
-13 -35 0
-53 -75 0
-93 -115 0
-13 -28 0
-53 -68 0
-93 -108 0
-13 -3 0
-53 -43 0
-93 -83 0
-13 -7 0
-53 -47 0
-93 -87 0
-35 -16 0
-75 -56 0
-115 -96 0
-35 -12 0
-75 -52 0
-115 -92 0
-35 -40 0
-75 -80 0
-115 -120 0
-16 -15 0
-56 -55 0
-96 -95 0
-24 -39 0
-64 -79 0
-104 -119 0
-24 -23 0
-64 -63 0
-104 -103 0
-15 -7 0
-55 -47 0
-95 -87 0
-15 -12 0
-55 -52 0
-95 -92 0
-5 -30 0
-45 -70 0
-85 -110 0
-5 -8 0
-45 -48 0
-85 -88 0
-39 -1 0
-79 -41 0
-119 -81 0
-10 -21 0
-50 -61 0
-90 -101 0
-10 -38 0
-50 -78 0
-90 -118 0
-30 -23 0
-70 -63 0
-110 -103 0
-30 -40 0
-70 -80 0
-110 -120 0
-30 -8 0
-70 -48 0
-110 -88 0
-7 -23 0
-47 -63 0
-87 -103 0
-3 -1 0
-43 -41 0
-83 -81 0
-3 -20 0
-43 -60 0
-83 -100 0
-8 -38 0
-48 -78 0
-88 -118 0
-8 -12 0
-48 -52 0
-88 -92 0
